TOUR_SECTION
1
199
21
18
47
133
3
74
121
42
29
146
168
95
190
118
110
102
37
188
159
132
77
183
23
36
34
145
108
166
33
32
6
143
58
50
30
92
125
167
198
191
150
81
98
129
142
48
181
62
24
12
149
20
10
89
176
192
163
91
128
54
201
67
13
4
90
27
107
104
158
85
122
115
180
69
59
101
78
173
46
171
197
61
141
162
155
84
57
65
117
161
64
70
175
100
86
66
14
131
88
15
79
193
26
134
9
17
157
120
63
164
2
174
11
119
68
116
51
99
154
45
153
160
124
56
82
73
151
75
140
8
196
138
94
185
179
28
137
147
113
52
195
165
114
71
76
41
186
194
83
111
22
106
19
152
105
93
25
184
60
55
187
5
87
97
40
177
109
182
38
31
44
72
39
127
49
35
112
135
200
53
126
123
16
178
169
43
189
170
130
96
139
80
7
144
136
148
172
103
156
-1
EOF